<?xml version="1.0" encoding="UTF-8"?><osil xmlns="os.optimizationservices.org"   xmlns:xsi="http://www.w3.org/2001/XMLSchema-instance" xsi:schemaLocation="os.optimizationservices.org http://www.optimizationservices.org/schemas/2.0/OSiL.xsd" ><instanceHeader><name>q_20_4_50_2</name></instanceHeader><instanceData><variables numberOfVariables="20"><var name="x1" ub="1"/><var name="x2" ub="1"/><var name="x3" ub="1"/><var name="x4" ub="1"/><var name="x5" ub="1"/><var name="x6" ub="1"/><var name="x7" ub="1"/><var name="x8" ub="1"/><var name="x9" ub="1"/><var name="x10" ub="1"/><var name="x11" ub="1"/><var name="x12" ub="1"/><var name="x13" ub="1"/><var name="x14" ub="1"/><var name="x15" ub="1"/><var name="x16" ub="1"/><var name="x17" ub="1"/><var name="x18" ub="1"/><var name="x19" ub="1"/><var name="x20" ub="1"/></variables><objectives numberOfObjectives="1"><obj maxOrMin="min" name="defObj_x21" numberOfObjCoef="20"><coef idx="0">.4082</coef><coef idx="1">.389</coef><coef idx="2">.637</coef><coef idx="3">-.3118</coef><coef idx="4">-.676</coef><coef idx="5">.3981</coef><coef idx="6">-.2936</coef><coef idx="7">.6458</coef><coef idx="8">.6699</coef><coef idx="9">-.8614</coef><coef idx="10">.3761</coef><coef idx="11">.5132</coef><coef idx="12">-.9404</coef><coef idx="13">-.9827</coef><coef idx="14">-.8414</coef><coef idx="15">-.3808</coef><coef idx="16">.366</coef><coef idx="17">.6492</coef><coef idx="18">-.5985</coef><coef idx="19">.7422</coef></obj></objectives><constraints numberOfConstraints="4"><con name="e2" ub="53.873"/><con name="e3" ub="33.578"/><con name="e4" ub="1.861"/><con name="e5" ub="89.9"/></constraints><linearConstraintCoefficients numberOfValues="80"><start><el mult="5" incr="20">0</el></start><colIdx><el mult="20" incr="1">0</el><el mult="20" incr="1">0</el><el mult="20" incr="1">0</el><el mult="20" incr="1">0</el></colIdx><value><el>-.957</el><el>-.6156</el><el>.6705</el><el>-.5714</el><el>.6198</el><el>-.1973</el><el>.7982</el><el>-.9545</el><el>-.6852</el><el>4.4e-3</el><el>.3623</el><el>-.1984</el><el>-.4786</el><el>.6794</el><el>-.3213</el><el>-.381</el><el>.7699</el><el>-.3381</el><el>-.5644</el><el>-.9852</el><el>-.5024</el><el>-.6676</el><el>-.7592</el><el>-9.12e-2</el><el>.7534</el><el>.3376</el><el>-.5005</el><el>-.4682</el><el>-.1855</el><el>.1034</el><el>-.1587</el><el>-.269</el><el>-.8698</el><el>.2962</el><el>-.7457</el><el>.7748</el><el>.9215</el><el>.7806</el><el>.4149</el><el>9.2e-3</el><el>.2556</el><el>8.04e-2</el><el>.44</el><el>-6.8e-3</el><el>.5275</el><el>-.1504</el><el>-.7599</el><el>-.956</el><el>-.5055</el><el>.4932</el><el>-.6198</el><el>.8397</el><el>.5619</el><el>.2587</el><el>7.07e-2</el><el>-.5017</el><el>.3081</el><el>.5406</el><el>-1.1e-2</el><el>-.2122</el><el>-.4312</el><el>-.6194</el><el>-.8514</el><el>.1081</el><el>.1338</el><el>.515</el><el>5.3e-3</el><el>-.1435</el><el>-.5774</el><el>.1888</el><el>.3261</el><el>-.9979</el><el>.7101</el><el>-.8298</el><el>.8521</el><el>.7312</el><el>.8048</el><el>.7778</el><el>-.5337</el><el>-.2222</el></value></linearConstraintCoefficients><quadraticCoefficients  numberOfQuadraticTerms="525" ><qTerm  idx="-1"  idxOne="0"  idxTwo="1"  coef=".7627"/><qTerm  idx="-1"  idxOne="0"  idxTwo="6"  coef=".4426"/><qTerm  idx="-1"  idxOne="0"  idxTwo="9"  coef="1.2637"/><qTerm  idx="-1"  idxOne="0"  idxTwo="12"  coef="-.9018"/><qTerm  idx="-1"  idxOne="0"  idxTwo="13"  coef="-.5898"/><qTerm  idx="-1"  idxOne="0"  idxTwo="15"  coef=".1009"/><qTerm  idx="-1"  idxOne="1"  idxTwo="1"  coef=".2774"/><qTerm  idx="-1"  idxOne="1"  idxTwo="2"  coef="-1.0936"/><qTerm  idx="-1"  idxOne="1"  idxTwo="3"  coef="-1.7507"/><qTerm  idx="-1"  idxOne="1"  idxTwo="4"  coef="-1.1"/><qTerm  idx="-1"  idxOne="1"  idxTwo="5"  coef="-.4016"/><qTerm  idx="-1"  idxOne="1"  idxTwo="6"  coef="-.5312"/><qTerm  idx="-1"  idxOne="1"  idxTwo="9"  coef="-.8187"/><qTerm  idx="-1"  idxOne="1"  idxTwo="11"  coef="-.9289"/><qTerm  idx="-1"  idxOne="1"  idxTwo="15"  coef="-.6619"/><qTerm  idx="-1"  idxOne="1"  idxTwo="16"  coef="-.7337"/><qTerm  idx="-1"  idxOne="1"  idxTwo="17"  coef="-1.3013"/><qTerm  idx="-1"  idxOne="1"  idxTwo="18"  coef="-.3339"/><qTerm  idx="-1"  idxOne="1"  idxTwo="19"  coef="-.5385"/><qTerm  idx="-1"  idxOne="2"  idxTwo="2"  coef="-1.2974"/><qTerm  idx="-1"  idxOne="2"  idxTwo="3"  coef="-1.325"/><qTerm  idx="-1"  idxOne="2"  idxTwo="4"  coef="-.3976"/><qTerm  idx="-1"  idxOne="2"  idxTwo="5"  coef="1.1063"/><qTerm  idx="-1"  idxOne="2"  idxTwo="6"  coef="1.5468"/><qTerm  idx="-1"  idxOne="2"  idxTwo="8"  coef=".4424"/><qTerm  idx="-1"  idxOne="2"  idxTwo="13"  coef="-1.6272"/><qTerm  idx="-1"  idxOne="2"  idxTwo="15"  coef=".736"/><qTerm  idx="-1"  idxOne="2"  idxTwo="16"  coef="-.9604"/><qTerm  idx="-1"  idxOne="2"  idxTwo="18"  coef="-1.5066"/><qTerm  idx="-1"  idxOne="3"  idxTwo="4"  coef="-1.5901"/><qTerm  idx="-1"  idxOne="3"  idxTwo="7"  coef="1.0187"/><qTerm  idx="-1"  idxOne="3"  idxTwo="8"  coef=".6791"/><qTerm  idx="-1"  idxOne="3"  idxTwo="9"  coef=".3953"/><qTerm  idx="-1"  idxOne="3"  idxTwo="10"  coef="-.5733"/><qTerm  idx="-1"  idxOne="3"  idxTwo="15"  coef="-1.7527"/><qTerm  idx="-1"  idxOne="3"  idxTwo="16"  coef=".8952"/><qTerm  idx="-1"  idxOne="3"  idxTwo="18"  coef=".2658"/><qTerm  idx="-1"  idxOne="4"  idxTwo="4"  coef="-.1524"/><qTerm  idx="-1"  idxOne="4"  idxTwo="6"  coef="-1.4801"/><qTerm  idx="-1"  idxOne="4"  idxTwo="7"  coef="-.542"/><qTerm  idx="-1"  idxOne="4"  idxTwo="8"  coef="-.2543"/><qTerm  idx="-1"  idxOne="4"  idxTwo="10"  coef="-.2222"/><qTerm  idx="-1"  idxOne="4"  idxTwo="11"  coef="-.4251"/><qTerm  idx="-1"  idxOne="4"  idxTwo="15"  coef="1.4098"/><qTerm  idx="-1"  idxOne="4"  idxTwo="16"  coef=".2671"/><qTerm  idx="-1"  idxOne="4"  idxTwo="18"  coef="-1.4738"/><qTerm  idx="-1"  idxOne="5"  idxTwo="8"  coef="1.0869"/><qTerm  idx="-1"  idxOne="5"  idxTwo="11"  coef="-1.8981"/><qTerm  idx="-1"  idxOne="5"  idxTwo="16"  coef="1.8112"/><qTerm  idx="-1"  idxOne="5"  idxTwo="18"  coef="1.4342"/><qTerm  idx="-1"  idxOne="6"  idxTwo="6"  coef="8.18e-2"/><qTerm  idx="-1"  idxOne="6"  idxTwo="7"  coef=".4624"/><qTerm  idx="-1"  idxOne="6"  idxTwo="8"  coef="-1.8587"/><qTerm  idx="-1"  idxOne="6"  idxTwo="10"  coef="1.7384"/><qTerm  idx="-1"  idxOne="6"  idxTwo="12"  coef=".8067"/><qTerm  idx="-1"  idxOne="6"  idxTwo="14"  coef="1.2024"/><qTerm  idx="-1"  idxOne="6"  idxTwo="15"  coef="-.6864"/><qTerm  idx="-1"  idxOne="6"  idxTwo="16"  coef="1.7647"/><qTerm  idx="-1"  idxOne="7"  idxTwo="7"  coef=".98"/><qTerm  idx="-1"  idxOne="7"  idxTwo="9"  coef=".175"/><qTerm  idx="-1"  idxOne="7"  idxTwo="11"  coef="1.5566"/><qTerm  idx="-1"  idxOne="7"  idxTwo="12"  coef="-1.4109"/><qTerm  idx="-1"  idxOne="7"  idxTwo="16"  coef="-.271"/><qTerm  idx="-1"  idxOne="7"  idxTwo="17"  coef="-1.4973"/><qTerm  idx="-1"  idxOne="7"  idxTwo="18"  coef="-1.1305"/><qTerm  idx="-1"  idxOne="8"  idxTwo="10"  coef="1.2323"/><qTerm  idx="-1"  idxOne="8"  idxTwo="12"  coef=".2222"/><qTerm  idx="-1"  idxOne="8"  idxTwo="15"  coef=".1701"/><qTerm  idx="-1"  idxOne="8"  idxTwo="16"  coef="-.6722"/><qTerm  idx="-1"  idxOne="8"  idxTwo="17"  coef="-1.4118"/><qTerm  idx="-1"  idxOne="8"  idxTwo="18"  coef=".5022"/><qTerm  idx="-1"  idxOne="9"  idxTwo="10"  coef="-.1709"/><qTerm  idx="-1"  idxOne="9"  idxTwo="11"  coef="1.5443"/><qTerm  idx="-1"  idxOne="9"  idxTwo="14"  coef="-1.6857"/><qTerm  idx="-1"  idxOne="9"  idxTwo="15"  coef="1.5103"/><qTerm  idx="-1"  idxOne="9"  idxTwo="16"  coef="-1.641"/><qTerm  idx="-1"  idxOne="9"  idxTwo="18"  coef=".879"/><qTerm  idx="-1"  idxOne="9"  idxTwo="19"  coef=".2968"/><qTerm  idx="-1"  idxOne="10"  idxTwo="10"  coef="-1.7888"/><qTerm  idx="-1"  idxOne="10"  idxTwo="14"  coef="-5.01e-2"/><qTerm  idx="-1"  idxOne="10"  idxTwo="17"  coef="1.8951"/><qTerm  idx="-1"  idxOne="10"  idxTwo="18"  coef="-.3086"/><qTerm  idx="-1"  idxOne="10"  idxTwo="19"  coef="-1.2546"/><qTerm  idx="-1"  idxOne="11"  idxTwo="13"  coef="-.69"/><qTerm  idx="-1"  idxOne="11"  idxTwo="16"  coef=".8654"/><qTerm  idx="-1"  idxOne="11"  idxTwo="17"  coef=".2512"/><qTerm  idx="-1"  idxOne="11"  idxTwo="18"  coef=".2594"/><qTerm  idx="-1"  idxOne="11"  idxTwo="19"  coef="-4.15e-2"/><qTerm  idx="-1"  idxOne="12"  idxTwo="14"  coef=".2038"/><qTerm  idx="-1"  idxOne="12"  idxTwo="15"  coef=".2878"/><qTerm  idx="-1"  idxOne="12"  idxTwo="16"  coef="-.2806"/><qTerm  idx="-1"  idxOne="12"  idxTwo="19"  coef="-.5104"/><qTerm  idx="-1"  idxOne="13"  idxTwo="13"  coef="-.4573"/><qTerm  idx="-1"  idxOne="13"  idxTwo="16"  coef="1.1128"/><qTerm  idx="-1"  idxOne="13"  idxTwo="17"  coef="-.8047"/><qTerm  idx="-1"  idxOne="13"  idxTwo="18"  coef="-.9396"/><qTerm  idx="-1"  idxOne="13"  idxTwo="19"  coef="-.6068"/><qTerm  idx="-1"  idxOne="14"  idxTwo="16"  coef=".5172"/><qTerm  idx="-1"  idxOne="14"  idxTwo="18"  coef="-.907"/><qTerm  idx="-1"  idxOne="14"  idxTwo="19"  coef="-.9407"/><qTerm  idx="-1"  idxOne="15"  idxTwo="17"  coef=".9008"/><qTerm  idx="-1"  idxOne="15"  idxTwo="19"  coef="-.375"/><qTerm  idx="-1"  idxOne="16"  idxTwo="17"  coef="1.1466"/><qTerm  idx="-1"  idxOne="17"  idxTwo="18"  coef="-.7503"/><qTerm  idx="-1"  idxOne="18"  idxTwo="19"  coef="1.5158"/><qTerm  idx="0"  idxOne="0"  idxTwo="1"  coef="-1.4016"/><qTerm  idx="0"  idxOne="0"  idxTwo="3"  coef="1.1621"/><qTerm  idx="0"  idxOne="0"  idxTwo="13"  coef=".6404"/><qTerm  idx="0"  idxOne="0"  idxTwo="18"  coef="1.5037"/><qTerm  idx="0"  idxOne="1"  idxTwo="3"  coef="-1.5548"/><qTerm  idx="0"  idxOne="1"  idxTwo="4"  coef=".2409"/><qTerm  idx="0"  idxOne="1"  idxTwo="7"  coef="-1.809"/><qTerm  idx="0"  idxOne="1"  idxTwo="8"  coef=".8501"/><qTerm  idx="0"  idxOne="1"  idxTwo="14"  coef="-.8814"/><qTerm  idx="0"  idxOne="1"  idxTwo="15"  coef="-1.6131"/><qTerm  idx="0"  idxOne="1"  idxTwo="16"  coef="-1.4437"/><qTerm  idx="0"  idxOne="1"  idxTwo="17"  coef="-5.74e-2"/><qTerm  idx="0"  idxOne="1"  idxTwo="18"  coef=".1935"/><qTerm  idx="0"  idxOne="2"  idxTwo="3"  coef="-1.7138"/><qTerm  idx="0"  idxOne="2"  idxTwo="6"  coef="-1.2195"/><qTerm  idx="0"  idxOne="2"  idxTwo="7"  coef=".3822"/><qTerm  idx="0"  idxOne="2"  idxTwo="8"  coef="1.3822"/><qTerm  idx="0"  idxOne="2"  idxTwo="10"  coef="-1.185"/><qTerm  idx="0"  idxOne="2"  idxTwo="11"  coef="-1.1569"/><qTerm  idx="0"  idxOne="2"  idxTwo="13"  coef="-.8772"/><qTerm  idx="0"  idxOne="2"  idxTwo="14"  coef="-1.4291"/><qTerm  idx="0"  idxOne="2"  idxTwo="17"  coef=".4289"/><qTerm  idx="0"  idxOne="3"  idxTwo="3"  coef="1.226"/><qTerm  idx="0"  idxOne="3"  idxTwo="4"  coef="9.9e-2"/><qTerm  idx="0"  idxOne="3"  idxTwo="7"  coef="1.6487"/><qTerm  idx="0"  idxOne="3"  idxTwo="10"  coef="1.8123"/><qTerm  idx="0"  idxOne="3"  idxTwo="12"  coef="1.6639"/><qTerm  idx="0"  idxOne="3"  idxTwo="13"  coef="-.6421"/><qTerm  idx="0"  idxOne="3"  idxTwo="14"  coef="-1.118"/><qTerm  idx="0"  idxOne="3"  idxTwo="15"  coef="1.0002"/><qTerm  idx="0"  idxOne="3"  idxTwo="16"  coef="-.6606"/><qTerm  idx="0"  idxOne="3"  idxTwo="18"  coef="-.7787"/><qTerm  idx="0"  idxOne="4"  idxTwo="6"  coef="-.3523"/><qTerm  idx="0"  idxOne="4"  idxTwo="10"  coef="1.7948"/><qTerm  idx="0"  idxOne="4"  idxTwo="11"  coef="-1.8245"/><qTerm  idx="0"  idxOne="4"  idxTwo="12"  coef="4.58e-2"/><qTerm  idx="0"  idxOne="4"  idxTwo="14"  coef="-.9651"/><qTerm  idx="0"  idxOne="4"  idxTwo="17"  coef="1.6867"/><qTerm  idx="0"  idxOne="4"  idxTwo="19"  coef="-1.3991"/><qTerm  idx="0"  idxOne="5"  idxTwo="6"  coef="1.0577"/><qTerm  idx="0"  idxOne="5"  idxTwo="7"  coef="7.28e-2"/><qTerm  idx="0"  idxOne="5"  idxTwo="8"  coef="-1.2069"/><qTerm  idx="0"  idxOne="5"  idxTwo="9"  coef="-1.064"/><qTerm  idx="0"  idxOne="5"  idxTwo="10"  coef="-.178"/><qTerm  idx="0"  idxOne="5"  idxTwo="12"  coef="1.2e-3"/><qTerm  idx="0"  idxOne="5"  idxTwo="13"  coef="-.4265"/><qTerm  idx="0"  idxOne="5"  idxTwo="14"  coef="-.902"/><qTerm  idx="0"  idxOne="5"  idxTwo="15"  coef="1.8678"/><qTerm  idx="0"  idxOne="5"  idxTwo="16"  coef=".8438"/><qTerm  idx="0"  idxOne="5"  idxTwo="18"  coef=".7831"/><qTerm  idx="0"  idxOne="5"  idxTwo="19"  coef="-.4741"/><qTerm  idx="0"  idxOne="6"  idxTwo="8"  coef="1.269"/><qTerm  idx="0"  idxOne="6"  idxTwo="9"  coef="1.8483"/><qTerm  idx="0"  idxOne="6"  idxTwo="11"  coef=".1473"/><qTerm  idx="0"  idxOne="6"  idxTwo="12"  coef="-1.1664"/><qTerm  idx="0"  idxOne="6"  idxTwo="13"  coef="-1.6027"/><qTerm  idx="0"  idxOne="6"  idxTwo="14"  coef="1.5877"/><qTerm  idx="0"  idxOne="6"  idxTwo="16"  coef=".4535"/><qTerm  idx="0"  idxOne="6"  idxTwo="17"  coef=".8322"/><qTerm  idx="0"  idxOne="6"  idxTwo="19"  coef="1.7156"/><qTerm  idx="0"  idxOne="7"  idxTwo="9"  coef="-.3966"/><qTerm  idx="0"  idxOne="7"  idxTwo="13"  coef="1.0785"/><qTerm  idx="0"  idxOne="7"  idxTwo="14"  coef=".4482"/><qTerm  idx="0"  idxOne="7"  idxTwo="16"  coef="1.8337"/><qTerm  idx="0"  idxOne="7"  idxTwo="17"  coef=".7637"/><qTerm  idx="0"  idxOne="7"  idxTwo="18"  coef="1.5125"/><qTerm  idx="0"  idxOne="8"  idxTwo="10"  coef="1.7514"/><qTerm  idx="0"  idxOne="8"  idxTwo="13"  coef="1.5163"/><qTerm  idx="0"  idxOne="8"  idxTwo="19"  coef="1.565"/><qTerm  idx="0"  idxOne="9"  idxTwo="10"  coef="-.1421"/><qTerm  idx="0"  idxOne="9"  idxTwo="12"  coef=".4892"/><qTerm  idx="0"  idxOne="9"  idxTwo="13"  coef="1.7347"/><qTerm  idx="0"  idxOne="9"  idxTwo="16"  coef="1.3643"/><qTerm  idx="0"  idxOne="9"  idxTwo="17"  coef=".7187"/><qTerm  idx="0"  idxOne="9"  idxTwo="18"  coef="6.48e-2"/><qTerm  idx="0"  idxOne="9"  idxTwo="19"  coef=".6296"/><qTerm  idx="0"  idxOne="10"  idxTwo="11"  coef="1.8464"/><qTerm  idx="0"  idxOne="10"  idxTwo="13"  coef="-1.1033"/><qTerm  idx="0"  idxOne="10"  idxTwo="17"  coef=".1011"/><qTerm  idx="0"  idxOne="10"  idxTwo="19"  coef="-1.8073"/><qTerm  idx="0"  idxOne="11"  idxTwo="11"  coef=".5348"/><qTerm  idx="0"  idxOne="11"  idxTwo="12"  coef="-1.4724"/><qTerm  idx="0"  idxOne="11"  idxTwo="13"  coef=".927"/><qTerm  idx="0"  idxOne="11"  idxTwo="16"  coef="-1.9207"/><qTerm  idx="0"  idxOne="11"  idxTwo="17"  coef="-.2837"/><qTerm  idx="0"  idxOne="11"  idxTwo="18"  coef="-.3173"/><qTerm  idx="0"  idxOne="12"  idxTwo="14"  coef="-.7503"/><qTerm  idx="0"  idxOne="12"  idxTwo="15"  coef="1.8117"/><qTerm  idx="0"  idxOne="12"  idxTwo="17"  coef="1.6393"/><qTerm  idx="0"  idxOne="12"  idxTwo="18"  coef="-.5643"/><qTerm  idx="0"  idxOne="12"  idxTwo="19"  coef="1.0776"/><qTerm  idx="0"  idxOne="13"  idxTwo="13"  coef=".101"/><qTerm  idx="0"  idxOne="13"  idxTwo="14"  coef="-8.11e-2"/><qTerm  idx="0"  idxOne="13"  idxTwo="16"  coef=".1284"/><qTerm  idx="0"  idxOne="13"  idxTwo="17"  coef="1.5899"/><qTerm  idx="0"  idxOne="13"  idxTwo="18"  coef="-.9235"/><qTerm  idx="0"  idxOne="14"  idxTwo="15"  coef="-.9189"/><qTerm  idx="0"  idxOne="14"  idxTwo="16"  coef="1.8985"/><qTerm  idx="0"  idxOne="15"  idxTwo="16"  coef="-.4327"/><qTerm  idx="0"  idxOne="15"  idxTwo="17"  coef="-1.2605"/><qTerm  idx="0"  idxOne="15"  idxTwo="18"  coef="-.3355"/><qTerm  idx="0"  idxOne="15"  idxTwo="19"  coef="-.4195"/><qTerm  idx="0"  idxOne="18"  idxTwo="18"  coef="1.8037"/><qTerm  idx="0"  idxOne="18"  idxTwo="19"  coef="-.6882"/><qTerm  idx="0"  idxOne="19"  idxTwo="19"  coef=".6813"/><qTerm  idx="1"  idxOne="0"  idxTwo="2"  coef="-.206"/><qTerm  idx="1"  idxOne="0"  idxTwo="8"  coef="-.107"/><qTerm  idx="1"  idxOne="0"  idxTwo="10"  coef="1.6519"/><qTerm  idx="1"  idxOne="0"  idxTwo="11"  coef=".5802"/><qTerm  idx="1"  idxOne="0"  idxTwo="14"  coef=".3814"/><qTerm  idx="1"  idxOne="0"  idxTwo="16"  coef="-1.8803"/><qTerm  idx="1"  idxOne="0"  idxTwo="17"  coef="-1.0899"/><qTerm  idx="1"  idxOne="1"  idxTwo="3"  coef="1.0235"/><qTerm  idx="1"  idxOne="1"  idxTwo="4"  coef="-1.9323"/><qTerm  idx="1"  idxOne="1"  idxTwo="7"  coef=".4439"/><qTerm  idx="1"  idxOne="1"  idxTwo="9"  coef="-4.4e-2"/><qTerm  idx="1"  idxOne="1"  idxTwo="10"  coef="-3.75e-2"/><qTerm  idx="1"  idxOne="1"  idxTwo="11"  coef="1.4726"/><qTerm  idx="1"  idxOne="1"  idxTwo="13"  coef=".5478"/><qTerm  idx="1"  idxOne="1"  idxTwo="14"  coef="-1.7887"/><qTerm  idx="1"  idxOne="1"  idxTwo="16"  coef="-1.6039"/><qTerm  idx="1"  idxOne="1"  idxTwo="18"  coef="-.2971"/><qTerm  idx="1"  idxOne="1"  idxTwo="19"  coef=".1617"/><qTerm  idx="1"  idxOne="2"  idxTwo="3"  coef="-.5444"/><qTerm  idx="1"  idxOne="2"  idxTwo="4"  coef="-1.8396"/><qTerm  idx="1"  idxOne="2"  idxTwo="6"  coef=".491"/><qTerm  idx="1"  idxOne="2"  idxTwo="9"  coef="-.57"/><qTerm  idx="1"  idxOne="2"  idxTwo="11"  coef="1.5799"/><qTerm  idx="1"  idxOne="2"  idxTwo="12"  coef="1.6025"/><qTerm  idx="1"  idxOne="2"  idxTwo="13"  coef="1.1994"/><qTerm  idx="1"  idxOne="2"  idxTwo="14"  coef="-1.5183"/><qTerm  idx="1"  idxOne="2"  idxTwo="17"  coef="1.9876"/><qTerm  idx="1"  idxOne="3"  idxTwo="6"  coef="-.3795"/><qTerm  idx="1"  idxOne="3"  idxTwo="7"  coef="-8.8e-2"/><qTerm  idx="1"  idxOne="3"  idxTwo="8"  coef="-1.7584"/><qTerm  idx="1"  idxOne="3"  idxTwo="10"  coef="-9.92e-2"/><qTerm  idx="1"  idxOne="3"  idxTwo="11"  coef="-.6455"/><qTerm  idx="1"  idxOne="3"  idxTwo="12"  coef="3.77e-2"/><qTerm  idx="1"  idxOne="4"  idxTwo="6"  coef="-.7628"/><qTerm  idx="1"  idxOne="4"  idxTwo="8"  coef="-.6068"/><qTerm  idx="1"  idxOne="4"  idxTwo="9"  coef="-1.7403"/><qTerm  idx="1"  idxOne="4"  idxTwo="10"  coef="1.3623"/><qTerm  idx="1"  idxOne="4"  idxTwo="12"  coef="-1.9437"/><qTerm  idx="1"  idxOne="4"  idxTwo="13"  coef=".6644"/><qTerm  idx="1"  idxOne="4"  idxTwo="15"  coef=".1481"/><qTerm  idx="1"  idxOne="4"  idxTwo="16"  coef=".9632"/><qTerm  idx="1"  idxOne="4"  idxTwo="17"  coef="-1.9783"/><qTerm  idx="1"  idxOne="4"  idxTwo="18"  coef="-1.7502"/><qTerm  idx="1"  idxOne="5"  idxTwo="6"  coef="-1.8648"/><qTerm  idx="1"  idxOne="5"  idxTwo="7"  coef=".8064"/><qTerm  idx="1"  idxOne="5"  idxTwo="8"  coef="-.9027"/><qTerm  idx="1"  idxOne="5"  idxTwo="10"  coef="-1.2152"/><qTerm  idx="1"  idxOne="5"  idxTwo="11"  coef="-.2773"/><qTerm  idx="1"  idxOne="5"  idxTwo="12"  coef="1.3138"/><qTerm  idx="1"  idxOne="5"  idxTwo="17"  coef="-.6786"/><qTerm  idx="1"  idxOne="5"  idxTwo="18"  coef="-3.56e-2"/><qTerm  idx="1"  idxOne="6"  idxTwo="7"  coef="-1.8215"/><qTerm  idx="1"  idxOne="6"  idxTwo="8"  coef="-1.0989"/><qTerm  idx="1"  idxOne="6"  idxTwo="9"  coef="1.4768"/><qTerm  idx="1"  idxOne="6"  idxTwo="10"  coef=".9377"/><qTerm  idx="1"  idxOne="6"  idxTwo="11"  coef="-1.301"/><qTerm  idx="1"  idxOne="6"  idxTwo="12"  coef=".9645"/><qTerm  idx="1"  idxOne="6"  idxTwo="14"  coef="-.9088"/><qTerm  idx="1"  idxOne="6"  idxTwo="15"  coef="6.17e-2"/><qTerm  idx="1"  idxOne="7"  idxTwo="7"  coef=".2443"/><qTerm  idx="1"  idxOne="7"  idxTwo="8"  coef="-3.87e-2"/><qTerm  idx="1"  idxOne="7"  idxTwo="9"  coef="-.6047"/><qTerm  idx="1"  idxOne="7"  idxTwo="11"  coef="-.8867"/><qTerm  idx="1"  idxOne="7"  idxTwo="12"  coef=".5211"/><qTerm  idx="1"  idxOne="7"  idxTwo="14"  coef="1.0918"/><qTerm  idx="1"  idxOne="7"  idxTwo="18"  coef="-3.91e-2"/><qTerm  idx="1"  idxOne="8"  idxTwo="10"  coef="-.7204"/><qTerm  idx="1"  idxOne="8"  idxTwo="11"  coef=".4042"/><qTerm  idx="1"  idxOne="8"  idxTwo="12"  coef="-1.875"/><qTerm  idx="1"  idxOne="8"  idxTwo="14"  coef="-1.1943"/><qTerm  idx="1"  idxOne="8"  idxTwo="15"  coef="-1.9652"/><qTerm  idx="1"  idxOne="8"  idxTwo="17"  coef=".9432"/><qTerm  idx="1"  idxOne="8"  idxTwo="18"  coef="-1.7774"/><qTerm  idx="1"  idxOne="8"  idxTwo="19"  coef="-.2274"/><qTerm  idx="1"  idxOne="9"  idxTwo="11"  coef="-.737"/><qTerm  idx="1"  idxOne="9"  idxTwo="15"  coef="-1.2802"/><qTerm  idx="1"  idxOne="9"  idxTwo="16"  coef="-1.1833"/><qTerm  idx="1"  idxOne="9"  idxTwo="17"  coef=".1747"/><qTerm  idx="1"  idxOne="9"  idxTwo="18"  coef=".7057"/><qTerm  idx="1"  idxOne="10"  idxTwo="11"  coef="4.65e-2"/><qTerm  idx="1"  idxOne="10"  idxTwo="12"  coef="1.5633"/><qTerm  idx="1"  idxOne="10"  idxTwo="13"  coef="-.1831"/><qTerm  idx="1"  idxOne="10"  idxTwo="15"  coef="-.831"/><qTerm  idx="1"  idxOne="10"  idxTwo="19"  coef=".3313"/><qTerm  idx="1"  idxOne="11"  idxTwo="12"  coef="1.1987"/><qTerm  idx="1"  idxOne="11"  idxTwo="15"  coef="-1.6159"/><qTerm  idx="1"  idxOne="11"  idxTwo="16"  coef="-.9628"/><qTerm  idx="1"  idxOne="11"  idxTwo="18"  coef="1.8837"/><qTerm  idx="1"  idxOne="12"  idxTwo="12"  coef=".243"/><qTerm  idx="1"  idxOne="12"  idxTwo="16"  coef=".8909"/><qTerm  idx="1"  idxOne="12"  idxTwo="18"  coef=".2322"/><qTerm  idx="1"  idxOne="12"  idxTwo="19"  coef="1.1186"/><qTerm  idx="1"  idxOne="13"  idxTwo="14"  coef=".7569"/><qTerm  idx="1"  idxOne="13"  idxTwo="15"  coef="-1.7768"/><qTerm  idx="1"  idxOne="13"  idxTwo="17"  coef="-.8722"/><qTerm  idx="1"  idxOne="13"  idxTwo="18"  coef="1.5981"/><qTerm  idx="1"  idxOne="13"  idxTwo="19"  coef="1.9838"/><qTerm  idx="1"  idxOne="14"  idxTwo="14"  coef="-1.4932"/><qTerm  idx="1"  idxOne="14"  idxTwo="15"  coef="1.4375"/><qTerm  idx="1"  idxOne="14"  idxTwo="17"  coef=".8678"/><qTerm  idx="1"  idxOne="15"  idxTwo="18"  coef="1.3424"/><qTerm  idx="1"  idxOne="17"  idxTwo="17"  coef=".2957"/><qTerm  idx="1"  idxOne="17"  idxTwo="18"  coef="-.8566"/><qTerm  idx="1"  idxOne="18"  idxTwo="18"  coef="-1.079"/><qTerm  idx="1"  idxOne="18"  idxTwo="19"  coef="-1.263"/><qTerm  idx="2"  idxOne="0"  idxTwo="2"  coef="1.0579"/><qTerm  idx="2"  idxOne="0"  idxTwo="4"  coef="-1.7503"/><qTerm  idx="2"  idxOne="0"  idxTwo="9"  coef="-1.8103"/><qTerm  idx="2"  idxOne="0"  idxTwo="12"  coef="1.3531"/><qTerm  idx="2"  idxOne="0"  idxTwo="17"  coef="1.3299"/><qTerm  idx="2"  idxOne="1"  idxTwo="2"  coef=".4574"/><qTerm  idx="2"  idxOne="1"  idxTwo="3"  coef=".2245"/><qTerm  idx="2"  idxOne="1"  idxTwo="4"  coef=".708"/><qTerm  idx="2"  idxOne="1"  idxTwo="5"  coef="-.8741"/><qTerm  idx="2"  idxOne="1"  idxTwo="6"  coef="1.9511"/><qTerm  idx="2"  idxOne="1"  idxTwo="7"  coef=".4106"/><qTerm  idx="2"  idxOne="1"  idxTwo="8"  coef="-.2961"/><qTerm  idx="2"  idxOne="1"  idxTwo="13"  coef=".6918"/><qTerm  idx="2"  idxOne="1"  idxTwo="15"  coef="1.2474"/><qTerm  idx="2"  idxOne="1"  idxTwo="16"  coef="-1.4528"/><qTerm  idx="2"  idxOne="1"  idxTwo="17"  coef="1.7189"/><qTerm  idx="2"  idxOne="1"  idxTwo="18"  coef="1.458"/><qTerm  idx="2"  idxOne="1"  idxTwo="19"  coef="-.8659"/><qTerm  idx="2"  idxOne="2"  idxTwo="2"  coef="1.221"/><qTerm  idx="2"  idxOne="2"  idxTwo="4"  coef="6.63e-2"/><qTerm  idx="2"  idxOne="2"  idxTwo="6"  coef="-.5574"/><qTerm  idx="2"  idxOne="2"  idxTwo="7"  coef=".8258"/><qTerm  idx="2"  idxOne="2"  idxTwo="10"  coef="-.5214"/><qTerm  idx="2"  idxOne="2"  idxTwo="11"  coef="-1.36e-2"/><qTerm  idx="2"  idxOne="2"  idxTwo="16"  coef="1.9301"/><qTerm  idx="2"  idxOne="2"  idxTwo="17"  coef="7.42e-2"/><qTerm  idx="2"  idxOne="3"  idxTwo="4"  coef="6.23e-2"/><qTerm  idx="2"  idxOne="3"  idxTwo="6"  coef=".7531"/><qTerm  idx="2"  idxOne="3"  idxTwo="7"  coef="1.8817"/><qTerm  idx="2"  idxOne="3"  idxTwo="15"  coef="1.5919"/><qTerm  idx="2"  idxOne="3"  idxTwo="17"  coef="-1.3891"/><qTerm  idx="2"  idxOne="4"  idxTwo="5"  coef="1.9279"/><qTerm  idx="2"  idxOne="4"  idxTwo="7"  coef=".1239"/><qTerm  idx="2"  idxOne="4"  idxTwo="8"  coef="-.2663"/><qTerm  idx="2"  idxOne="4"  idxTwo="9"  coef="1.5949"/><qTerm  idx="2"  idxOne="4"  idxTwo="10"  coef=".7755"/><qTerm  idx="2"  idxOne="4"  idxTwo="13"  coef="-1.2865"/><qTerm  idx="2"  idxOne="4"  idxTwo="14"  coef=".3418"/><qTerm  idx="2"  idxOne="4"  idxTwo="16"  coef="-1.9703"/><qTerm  idx="2"  idxOne="4"  idxTwo="18"  coef="-.2095"/><qTerm  idx="2"  idxOne="5"  idxTwo="6"  coef="1.3648"/><qTerm  idx="2"  idxOne="5"  idxTwo="8"  coef="-.885"/><qTerm  idx="2"  idxOne="5"  idxTwo="9"  coef="-1.5965"/><qTerm  idx="2"  idxOne="5"  idxTwo="12"  coef="-.9109"/><qTerm  idx="2"  idxOne="5"  idxTwo="14"  coef=".8073"/><qTerm  idx="2"  idxOne="5"  idxTwo="17"  coef="-.4609"/><qTerm  idx="2"  idxOne="5"  idxTwo="19"  coef="1.7572"/><qTerm  idx="2"  idxOne="6"  idxTwo="6"  coef="1.4541"/><qTerm  idx="2"  idxOne="6"  idxTwo="8"  coef="8.1e-3"/><qTerm  idx="2"  idxOne="6"  idxTwo="10"  coef=".6639"/><qTerm  idx="2"  idxOne="6"  idxTwo="12"  coef="-1.5574"/><qTerm  idx="2"  idxOne="6"  idxTwo="13"  coef=".4222"/><qTerm  idx="2"  idxOne="6"  idxTwo="16"  coef=".4486"/><qTerm  idx="2"  idxOne="7"  idxTwo="7"  coef="-1.1889"/><qTerm  idx="2"  idxOne="7"  idxTwo="8"  coef="-1.0938"/><qTerm  idx="2"  idxOne="7"  idxTwo="9"  coef="-1.9029"/><qTerm  idx="2"  idxOne="7"  idxTwo="12"  coef="1.35e-2"/><qTerm  idx="2"  idxOne="7"  idxTwo="14"  coef=".5756"/><qTerm  idx="2"  idxOne="7"  idxTwo="18"  coef="1.0839"/><qTerm  idx="2"  idxOne="8"  idxTwo="8"  coef=".7598"/><qTerm  idx="2"  idxOne="8"  idxTwo="13"  coef="1.1222"/><qTerm  idx="2"  idxOne="8"  idxTwo="17"  coef="1.126"/><qTerm  idx="2"  idxOne="8"  idxTwo="18"  coef="1.5047"/><qTerm  idx="2"  idxOne="9"  idxTwo="10"  coef=".7568"/><qTerm  idx="2"  idxOne="9"  idxTwo="11"  coef="-.8891"/><qTerm  idx="2"  idxOne="9"  idxTwo="12"  coef="1.3936"/><qTerm  idx="2"  idxOne="9"  idxTwo="13"  coef=".8296"/><qTerm  idx="2"  idxOne="9"  idxTwo="14"  coef="-1.3548"/><qTerm  idx="2"  idxOne="9"  idxTwo="17"  coef=".8181"/><qTerm  idx="2"  idxOne="9"  idxTwo="18"  coef=".9418"/><qTerm  idx="2"  idxOne="9"  idxTwo="19"  coef="1.9684"/><qTerm  idx="2"  idxOne="10"  idxTwo="12"  coef="1.8508"/><qTerm  idx="2"  idxOne="10"  idxTwo="13"  coef="1.0222"/><qTerm  idx="2"  idxOne="10"  idxTwo="14"  coef="-1.5618"/><qTerm  idx="2"  idxOne="10"  idxTwo="16"  coef="-.9925"/><qTerm  idx="2"  idxOne="10"  idxTwo="18"  coef="-.2531"/><qTerm  idx="2"  idxOne="10"  idxTwo="19"  coef="1.8754"/><qTerm  idx="2"  idxOne="11"  idxTwo="12"  coef="-1.1435"/><qTerm  idx="2"  idxOne="11"  idxTwo="16"  coef=".7466"/><qTerm  idx="2"  idxOne="12"  idxTwo="13"  coef="-1.3024"/><qTerm  idx="2"  idxOne="12"  idxTwo="14"  coef="9.63e-2"/><qTerm  idx="2"  idxOne="12"  idxTwo="15"  coef=".7091"/><qTerm  idx="2"  idxOne="12"  idxTwo="17"  coef=".3741"/><qTerm  idx="2"  idxOne="12"  idxTwo="18"  coef=".2116"/><qTerm  idx="2"  idxOne="12"  idxTwo="19"  coef="-.3465"/><qTerm  idx="2"  idxOne="13"  idxTwo="13"  coef="-.443"/><qTerm  idx="2"  idxOne="13"  idxTwo="14"  coef="-.3085"/><qTerm  idx="2"  idxOne="13"  idxTwo="15"  coef="1.4162"/><qTerm  idx="2"  idxOne="13"  idxTwo="16"  coef="1.7586"/><qTerm  idx="2"  idxOne="13"  idxTwo="17"  coef="1.1247"/><qTerm  idx="2"  idxOne="13"  idxTwo="18"  coef="1.5388"/><qTerm  idx="2"  idxOne="13"  idxTwo="19"  coef="-1.2737"/><qTerm  idx="2"  idxOne="14"  idxTwo="14"  coef="-1.6817"/><qTerm  idx="2"  idxOne="14"  idxTwo="15"  coef=".6334"/><qTerm  idx="2"  idxOne="14"  idxTwo="17"  coef="1.3931"/><qTerm  idx="2"  idxOne="14"  idxTwo="18"  coef=".2535"/><qTerm  idx="2"  idxOne="15"  idxTwo="15"  coef="1.4072"/><qTerm  idx="2"  idxOne="15"  idxTwo="16"  coef="-.2402"/><qTerm  idx="2"  idxOne="15"  idxTwo="18"  coef="-1.1585"/><qTerm  idx="2"  idxOne="16"  idxTwo="17"  coef=".8206"/><qTerm  idx="2"  idxOne="16"  idxTwo="19"  coef="1.8085"/><qTerm  idx="2"  idxOne="17"  idxTwo="17"  coef="-1.891"/><qTerm  idx="2"  idxOne="17"  idxTwo="18"  coef=".7516"/><qTerm  idx="2"  idxOne="17"  idxTwo="19"  coef="-5.16e-2"/><qTerm  idx="2"  idxOne="18"  idxTwo="18"  coef="-.4858"/><qTerm  idx="3"  idxOne="0"  idxTwo="2"  coef="1.2512"/><qTerm  idx="3"  idxOne="0"  idxTwo="4"  coef=".2897"/><qTerm  idx="3"  idxOne="0"  idxTwo="7"  coef="-1.6115"/><qTerm  idx="3"  idxOne="0"  idxTwo="9"  coef="1.2258"/><qTerm  idx="3"  idxOne="0"  idxTwo="12"  coef="1.2012"/><qTerm  idx="3"  idxOne="0"  idxTwo="13"  coef="1.852"/><qTerm  idx="3"  idxOne="0"  idxTwo="15"  coef="-1.7628"/><qTerm  idx="3"  idxOne="1"  idxTwo="3"  coef="1.8378"/><qTerm  idx="3"  idxOne="1"  idxTwo="4"  coef="-.5111"/><qTerm  idx="3"  idxOne="1"  idxTwo="7"  coef="-1.0115"/><qTerm  idx="3"  idxOne="1"  idxTwo="9"  coef="1.6969"/><qTerm  idx="3"  idxOne="1"  idxTwo="17"  coef="-.4472"/><qTerm  idx="3"  idxOne="1"  idxTwo="19"  coef="-.8156"/><qTerm  idx="3"  idxOne="2"  idxTwo="2"  coef="-1.4656"/><qTerm  idx="3"  idxOne="2"  idxTwo="3"  coef=".9118"/><qTerm  idx="3"  idxOne="2"  idxTwo="4"  coef=".6437"/><qTerm  idx="3"  idxOne="2"  idxTwo="5"  coef="1.5117"/><qTerm  idx="3"  idxOne="2"  idxTwo="7"  coef="-.6647"/><qTerm  idx="3"  idxOne="2"  idxTwo="8"  coef=".9372"/><qTerm  idx="3"  idxOne="2"  idxTwo="11"  coef="-.541"/><qTerm  idx="3"  idxOne="2"  idxTwo="12"  coef="-1.5066"/><qTerm  idx="3"  idxOne="2"  idxTwo="14"  coef=".6342"/><qTerm  idx="3"  idxOne="2"  idxTwo="15"  coef=".1454"/><qTerm  idx="3"  idxOne="2"  idxTwo="16"  coef="1.7644"/><qTerm  idx="3"  idxOne="2"  idxTwo="17"  coef="1.7357"/><qTerm  idx="3"  idxOne="3"  idxTwo="4"  coef="1.9742"/><qTerm  idx="3"  idxOne="3"  idxTwo="6"  coef=".8389"/><qTerm  idx="3"  idxOne="3"  idxTwo="9"  coef="-5.8e-3"/><qTerm  idx="3"  idxOne="3"  idxTwo="12"  coef="1.7855"/><qTerm  idx="3"  idxOne="3"  idxTwo="14"  coef="-.9091"/><qTerm  idx="3"  idxOne="3"  idxTwo="16"  coef="-1.0022"/><qTerm  idx="3"  idxOne="3"  idxTwo="18"  coef="-1.1787"/><qTerm  idx="3"  idxOne="4"  idxTwo="6"  coef="-.7858"/><qTerm  idx="3"  idxOne="4"  idxTwo="8"  coef="-1.2733"/><qTerm  idx="3"  idxOne="4"  idxTwo="10"  coef="1.6661"/><qTerm  idx="3"  idxOne="4"  idxTwo="11"  coef="-1.8552"/><qTerm  idx="3"  idxOne="4"  idxTwo="12"  coef="1.553"/><qTerm  idx="3"  idxOne="4"  idxTwo="13"  coef="-.3997"/><qTerm  idx="3"  idxOne="4"  idxTwo="14"  coef=".562"/><qTerm  idx="3"  idxOne="4"  idxTwo="15"  coef="-.6825"/><qTerm  idx="3"  idxOne="4"  idxTwo="16"  coef="-1.015"/><qTerm  idx="3"  idxOne="4"  idxTwo="17"  coef="1.9299"/><qTerm  idx="3"  idxOne="4"  idxTwo="19"  coef="-1.8e-3"/><qTerm  idx="3"  idxOne="5"  idxTwo="7"  coef="-.3582"/><qTerm  idx="3"  idxOne="5"  idxTwo="10"  coef="-.7975"/><qTerm  idx="3"  idxOne="5"  idxTwo="14"  coef="-1.9095"/><qTerm  idx="3"  idxOne="5"  idxTwo="15"  coef="1.3567"/><qTerm  idx="3"  idxOne="5"  idxTwo="17"  coef="-1.3313"/><qTerm  idx="3"  idxOne="5"  idxTwo="18"  coef=".3031"/><qTerm  idx="3"  idxOne="6"  idxTwo="7"  coef="1.4115"/><qTerm  idx="3"  idxOne="6"  idxTwo="9"  coef="-.1084"/><qTerm  idx="3"  idxOne="6"  idxTwo="10"  coef="1.5362"/><qTerm  idx="3"  idxOne="6"  idxTwo="11"  coef="-1.5996"/><qTerm  idx="3"  idxOne="6"  idxTwo="12"  coef=".5911"/><qTerm  idx="3"  idxOne="6"  idxTwo="14"  coef="-1.8386"/><qTerm  idx="3"  idxOne="6"  idxTwo="15"  coef="-.3218"/><qTerm  idx="3"  idxOne="6"  idxTwo="16"  coef="-.5887"/><qTerm  idx="3"  idxOne="6"  idxTwo="17"  coef="-.876"/><qTerm  idx="3"  idxOne="6"  idxTwo="18"  coef="1.0468"/><qTerm  idx="3"  idxOne="6"  idxTwo="19"  coef=".7339"/><qTerm  idx="3"  idxOne="7"  idxTwo="8"  coef=".3841"/><qTerm  idx="3"  idxOne="7"  idxTwo="9"  coef=".6006"/><qTerm  idx="3"  idxOne="7"  idxTwo="11"  coef="1.9671"/><qTerm  idx="3"  idxOne="7"  idxTwo="12"  coef="-1.483"/><qTerm  idx="3"  idxOne="7"  idxTwo="13"  coef="1.436"/><qTerm  idx="3"  idxOne="7"  idxTwo="16"  coef=".4687"/><qTerm  idx="3"  idxOne="7"  idxTwo="19"  coef="-1.8261"/><qTerm  idx="3"  idxOne="8"  idxTwo="11"  coef="-1.9906"/><qTerm  idx="3"  idxOne="8"  idxTwo="12"  coef="-.8876"/><qTerm  idx="3"  idxOne="8"  idxTwo="14"  coef=".1859"/><qTerm  idx="3"  idxOne="8"  idxTwo="15"  coef="-.13"/><qTerm  idx="3"  idxOne="8"  idxTwo="17"  coef="-1.5347"/><qTerm  idx="3"  idxOne="8"  idxTwo="19"  coef="1.8835"/><qTerm  idx="3"  idxOne="9"  idxTwo="9"  coef=".227"/><qTerm  idx="3"  idxOne="9"  idxTwo="10"  coef=".2049"/><qTerm  idx="3"  idxOne="9"  idxTwo="13"  coef=".1755"/><qTerm  idx="3"  idxOne="9"  idxTwo="14"  coef="-.4733"/><qTerm  idx="3"  idxOne="9"  idxTwo="17"  coef="1.5287"/><qTerm  idx="3"  idxOne="9"  idxTwo="18"  coef="1.4444"/><qTerm  idx="3"  idxOne="9"  idxTwo="19"  coef="1.1916"/><qTerm  idx="3"  idxOne="10"  idxTwo="10"  coef="-1.0351"/><qTerm  idx="3"  idxOne="10"  idxTwo="12"  coef=".2234"/><qTerm  idx="3"  idxOne="10"  idxTwo="14"  coef="-1.068"/><qTerm  idx="3"  idxOne="10"  idxTwo="17"  coef=".2719"/><qTerm  idx="3"  idxOne="11"  idxTwo="12"  coef="-.8802"/><qTerm  idx="3"  idxOne="11"  idxTwo="15"  coef=".7638"/><qTerm  idx="3"  idxOne="11"  idxTwo="17"  coef="7.34e-2"/><qTerm  idx="3"  idxOne="12"  idxTwo="12"  coef="-.1289"/><qTerm  idx="3"  idxOne="12"  idxTwo="13"  coef="1.6327"/><qTerm  idx="3"  idxOne="12"  idxTwo="15"  coef="-1.3742"/><qTerm  idx="3"  idxOne="12"  idxTwo="16"  coef="-.7506"/><qTerm  idx="3"  idxOne="12"  idxTwo="17"  coef="1.1613"/><qTerm  idx="3"  idxOne="12"  idxTwo="19"  coef="-1.6846"/><qTerm  idx="3"  idxOne="13"  idxTwo="13"  coef=".2842"/><qTerm  idx="3"  idxOne="13"  idxTwo="14"  coef="1.9782"/><qTerm  idx="3"  idxOne="13"  idxTwo="15"  coef="-.6091"/><qTerm  idx="3"  idxOne="13"  idxTwo="18"  coef=".5447"/><qTerm  idx="3"  idxOne="13"  idxTwo="19"  coef="-.6795"/><qTerm  idx="3"  idxOne="14"  idxTwo="15"  coef="-1.8508"/><qTerm  idx="3"  idxOne="14"  idxTwo="16"  coef=".5657"/><qTerm  idx="3"  idxOne="14"  idxTwo="18"  coef="-1.5509"/><qTerm  idx="3"  idxOne="15"  idxTwo="17"  coef="-1.78"/><qTerm  idx="3"  idxOne="15"  idxTwo="18"  coef="-1.4337"/><qTerm  idx="3"  idxOne="15"  idxTwo="19"  coef=".2679"/><qTerm  idx="3"  idxOne="16"  idxTwo="16"  coef=".7006"/></quadraticCoefficients></instanceData></osil>
